18 49
7 18
4 12
5 11
8 1
6 3
14 15
17 1
2 15
12 14
14 10
16 4
13 16
16 17
15 18
11 15
1 2
4 6
17 6
14 8
5 1
16 11
9 14
6 13
17 11
7 1
14 4
10 5
13 10
9 17
17 2
18 16
11 14
12 7
15 9
1 10
17 7
4 8
9 2
5 8
10 2
1 9
7 13
2 12
1 3
18 3
13 12
3 5
8 18
3 7
